11
2147483647 11 59 43 60 29 23 21 81 41 86 
11 2147483647 62 21 62 42 30 56 98 95 21 
59 62 2147483647 24 85 82 18 12 75 88 50 
43 21 24 2147483647 35 66 22 69 38 15 32 
60 62 85 35 2147483647 99 44 94 1 1 15 
29 42 82 66 99 2147483647 84 23 71 87 97 
23 30 18 22 44 84 2147483647 86 72 83 73 
21 56 12 69 94 23 86 2147483647 52 77 68 
81 98 75 38 1 71 72 52 2147483647 7 10 
41 95 88 15 1 87 83 77 7 2147483647 35 
86 21 50 32 15 97 73 68 10 35 2147483647 
